(declare-const a Real)
(declare-const b Real)
(declare-const c Real)
(assert (= (+ a b c) 3))
(assert (> a 0))
(assert (> b 0))
(assert (> c 0))
(assert (not (<= (+ (* -70656 a (pow c 4)) (* -70656 b (pow a 4)) (* -67488 c (pow b 4)) (* -23552 a (pow b 4)) (* -23552 b (pow c 4)) (* -21504 (pow a 2) (pow c 3)) (* -21504 (pow a 3) (pow b 2)) (* -20384 c (pow a 4)) (* 324 c (pow (+ a b) 4)) (* 15360 (pow b 3) (pow c 2)) (* 21504 (pow a 2) (pow b 3)) (* 21504 (pow b 2) (pow c 3)) (* 58368 (pow a 3) (pow c 2)) (* 57344 a b (pow (+ (/ 2 5) (* (/ 3 5) c)) 5)) (* 70016 a c (pow b 3)) (* 70016 b c (pow a 3))) 0)))
(check-sat)
(get-model)
(exit)